z3-noodler/regex-020-translate-translate-multiply_medium.smt2
(set-info :smt-lib-version 2.6)
(set-logic QF_SLIA)
(set-info :source |
Generated by: Dmitry Blotsky1, Federico Mora, Murphy Berzish, Yunhui Zheng, Ifaz Kabir, Vijay Ganesh, Zhengyang Lu
Generated on: 2018-01-24
Generator: StringFuzz
Application: Evaluate string solvers
Target solver: Z3str3, CVC4, Z3str2, Norn
Publications: Blotsky, D., Mora, F., Berzish, M., Zheng, Y., Kabir, I., & Ganesh, V. (2018). Stringfuzz: A fuzzer for string solvers. In CAV 2018.
Description: transformed by StringFuzz, a modular string and regex fuzzer, from an industrial benchmark
|)
(set-info :license "https://creativecommons.org/licenses/by/4.0/")
(set-info :category "random")
(set-info :status unknown)

(declare-const x String)
(declare-const y String)
(declare-const part_0_4459 String)
(declare-const part_0_6301 String)
(declare-const rest_1_9896 String)
(declare-const rest_2_6664 String)
(assert (str.in_re x (re.* (re.++ (re.* (str.to_re "[[")) (str.to_re "zz")))))
(assert (= (str.len x) 6))
(assert (not (= x "[[zzzz")))
(assert (not (= x "zz[[zz")))
(assert (not (= x "[[[[zz")))
(assert (= (str.split_at x "|" 3) part_0_4459))
(assert (= (str.len part_0_4459) 10))
(assert (= (str.split_at x ";;" 2) part_0_6301))
(assert (str.prefixof "bc" part_0_6301))
(assert (= (str.split_at x ";;" 1) "bdo7gsj5"))
(assert (= (str.split_rest x ";;" 1) "woi8ry12hw"))
(assert (= (str.split_rest x ";;" 0) rest_1_9896))
(assert (= (str.split_rest x ";;" 1) rest_2_6664))
(check-sat)

(exit)
(get-model)
